certificates/rado_a15_c221_N39.drat
-35 -37 -39 0
-37 -38 -39 0
-38 -39 0
d -37 -38 -39 0
15 -39 0
-39 0
13 0
-15 16 0
9 16 0
d 9 28 16 0
16 0
-35 0
-32 0
15 0
-11 0
-19 0
-9 0
-17 0
-12 0
-34 0
-20 0
14 0
1 0
5 0
-3 0
-25 0
-2 0
-24 0
-33 0
-27 0
0
